
  21    0


   0  13 2 3 4 5 6 7 14 15 16 17 18 19 20 
   7   4 13 12 10 8 
   3   3 11 10 9 
  10   2 13 9 
  10   2 12 9 
   9   2 11 9 
   5   2 10 9 
   5   1 9 
   6   1 21
   1   1 21
  10   1 21
   2   1 21
   6   1 21
  10   1 21
   6   1 21
   7   1 21
   4   1 21
   5   1 21
   3   1 21
   8   1 21
   0   0 
